# Solution for model r5_t27_m5_9 Batch Number: 3
# Finished Task: 25 / 27
# Makespan: 548.0, Total Distance: 615.0, Total Time: 42.5851
# R O S F Batch
0 0 11 0.0 0.0 -1
1 1 22 0.0 0.0 -1
2 2 12 0.0 0.0 -1
3 3 19 0.0 0.0 -1
4 4 25 0.0 0.0 -1
5 0 26 302.0 330.0 0
6 3 7 288.0 312.0 0
7 3 23 345.0 375.0 0
8 1 9 315.0 343.0 0
9 1 21 379.0 417.0 0
10 1 31 240.0 263.0 0
11 0 5 108.0 133.0 0
12 2 27 312.0 349.0 0
13 4 18 454.0 474.0 2
14 -1 -1 -1.0 -1.0 2
15 4 13 417.0 437.0 2
16 3 24 437.0 461.0 2
17 0 -1 450.0 484.0 1
18 4 -1 520.0 548.0 2
19 3 6 242.0 269.0 0
20 2 -1 437.0 469.0 2
21 1 -1 461.0 494.0 2
22 1 10 177.0 198.0 0
23 3 16 383.0 417.0 0
24 3 -1 496.0 535.0 2
25 4 29 92.0 124.0 0
26 0 17 391.0 417.0 0
27 2 20 382.0 417.0 0
28 4 15 360.0 383.0 0
29 4 28 135.0 156.0 0
30 -1 -1 -1.0 -1.0 2
31 1 8 281.0 301.0 0
